units real
atom_style full
variable T equal 100
#variable rho equal 0.01

region box block 0 20 0 20 0 20
create_box 1 box bond/types 1 extra/bond/per/atom 1

pair_style lj/class2 10.0
pair_coeff * * 0.05980 3.8008
mass * 14.0

bond_style class2
bond_coeff 1 1.0977 1651.3730 -4069.3178 5984.9629
neigh_modify every 1 delay 0 check yes

molecule N2 N2.molecule

create_atoms 0 random 500 12345 box mol N2 1234

thermo_style	custom step atoms temp epair etotal press
thermo          100

timestep 2
fix nvt all nvt temp $T $T 100.0

minimize 1e-4 1e-4 100 100
velocity all create $T 4928459

run             10000

unfix nvt
fix nve all nve

variable eFlux equal 0.001
fix heat all heat 1 ${eFlux} region box
# Store the time when we started adding energy
variable currentTime equal $(time)
run 1000
compute temp all temp
# Energy is flux * time
variable dQ equal v_eFlux*(time-v_currentTime)
# Temperature was $T when we started adding energy
variable dT equal c_temp-$T
# Heat capacity is dQ/dT
variable heatCapacity equal v_dQ/v_dT
thermo_style custom step temp v_dQ v_dT v_heatCapacity
thermo 100
run 40000